StringID Type x y demand ReadyTime DueDate ServiceTime
D0 d 40 50 0 0 960 0
Dt d 40 50 0 0 960 0
S0 f 40 50 0 0 960 0
S9 f 14 59 0 0 960 0
S13 f 22 34 0 0 960 0
S15 f 39 26 0 0 960 0
C23 c2 38 5 30 0 904 10
C19 c3 42 10 40 0 909 10
C49 c1 42 12 10 0 911 10
C4 c2 20 80 40 712 832 10
C81 c1 49 58 10 0 937 10
P0 p 18 16 0 0 960 45
param Q := 77.75
param CV := 1000
param r := 1
param g := 0.39
param V := 1
